
# Samples and dimension 
param m := 140;
param n := 4;

# Hyperparam
param nu := 30;

# Points
param A : 1 2 3 4 :=
1 0.201 0.165 0.228 0.348
2 0.879 0.599 0.772 0.091
3 0.58 0.341 0.2 0.495
4 0.706 0.437 0.741 0.559
5 0.914 0.768 0.215 0.121
6 0.241 0.44 0.613 0.112
7 0.317 0.313 0.233 0.545
8 0.301 0.424 0.259 0.073
9 0.033 0.653 0.855 0.233
10 0.948 0.94 0.586 0.69
11 0.103 0.604 0.267 0.318
12 0.143 0.559 0.165 0.755
13 0.232 0.073 0.983 0.465
14 0.644 0.766 0.041 0.903
15 0.556 0.936 0.493 0.41
16 0.641 0.359 0.109 0.227
17 0.608 0.329 0.653 0.874
18 0.378 0.017 0.206 0.543
19 0.877 0.775 0.845 0.86
20 0.463 0.504 0.006 0.504
21 0.846 0.06 0.343 0.339
22 0.513 0.98 0.829 0.622
23 0.878 0.229 0.535 0.532
24 0.183 0.91 0.121 0.389
25 0.893 0.266 0.228 0.738
26 0.468 0.201 0.63 0.475
27 0.037 0.321 0.765 0.381
28 0.236 0.894 0.639 0.065
29 0.845 0.943 0.745 0.381
30 0.848 0.563 0.385 0.969
31 0.838 0.862 0.218 0.066
32 0.344 0.534 0.802 0.974
33 0.507 0.011 0.33 0.273
34 0.99 0.508 0.286 0.629
35 0.801 0.474 0.517 0.546
36 0.991 0.394 0.418 0.376
37 0.37 0.213 0.225 0.588
38 0.826 0.932 0.813 0.628
39 0.823 0.135 0.917 0.153
40 0.309 0.142 0.917 0.595
41 0.49 0.396 0.245 0.007
42 0.1 0.998 0.335 0.518
43 0.699 0.888 0.587 0.924
44 0.867 0.75 0.408 0.68
45 0.314 0.503 0.514 0.231
46 0.922 0.54 0.798 0.839
47 0.569 0.329 0.53 0.814
48 0.472 0.914 0.334 0.807
49 0.708 0.506 0.32 0.296
50 0.796 0.162 0.18 0.204
51 0.559 0.518 0.345 0.073
52 0.001 0.995 0.289 0.798
53 0.424 0.367 0.163 0.954
54 0.499 0.426 0.094 0.834
55 0.526 0.542 0.739 0.845
56 0.169 0.642 0.0 0.349
57 0.843 0.908 0.364 0.188
58 0.114 0.188 0.976 0.403
59 0.81 0.827 0.353 0.973
60 0.533 0.472 0.208 0.627
61 0.441 0.153 0.848 0.179
62 0.685 0.348 0.64 0.685
63 0.486 0.528 0.606 0.851
64 0.587 0.964 0.904 0.563
65 0.89 0.373 0.195 0.243
66 0.976 0.776 0.818 0.184
67 0.124 0.624 0.556 0.971
68 0.554 0.656 0.152 0.194
69 0.85 0.681 0.869 0.456
70 0.585 0.043 0.496 0.488
71 0.863 0.378 0.979 0.058
72 0.325 0.034 0.397 0.143
73 0.801 0.266 0.842 0.357
74 0.646 0.911 0.893 0.798
75 0.235 0.649 0.786 0.104
76 0.317 0.689 0.148 0.813
77 0.755 0.676 0.555 0.734
78 0.176 0.058 0.768 0.573
79 0.986 0.374 0.467 0.829
80 0.704 0.475 0.642 0.598
81 0.747 0.833 0.922 0.534
82 0.027 0.851 0.626 0.175
83 0.803 0.93 0.34 0.358
84 0.074 0.534 0.722 0.843
85 0.923 0.829 0.481 0.39
86 0.212 0.094 0.132 0.854
87 0.406 0.601 0.525 0.327
88 0.462 0.354 0.986 0.087
89 0.65 0.89 0.459 0.99
90 0.123 0.064 0.781 0.844
91 0.888 0.767 0.736 0.369
92 0.393 0.581 0.252 0.525
93 0.944 0.931 0.035 0.469
94 0.17 0.93 0.612 0.155
95 0.142 0.805 0.907 0.601
96 0.154 0.723 0.858 0.935
97 0.765 0.823 0.335 0.501
98 0.493 0.894 0.773 0.744
99 0.207 0.688 0.35 0.242
100 0.608 0.412 0.087 0.22
101 0.104 0.362 0.371 0.011
102 0.166 0.165 0.686 0.024
103 0.254 0.789 0.924 0.589
104 0.116 0.082 0.183 0.889
105 0.602 0.096 0.514 0.952
106 0.671 0.56 0.75 0.757
107 0.317 0.861 0.142 0.688
108 0.105 0.854 0.038 0.791
109 0.139 0.046 0.668 0.063
110 0.957 0.179 0.717 0.141
111 0.543 0.743 0.165 0.057
112 0.503 0.727 0.255 0.253
113 0.035 0.569 0.346 0.178
114 0.219 0.283 0.112 0.257
115 0.99 0.395 0.12 0.658
116 0.755 0.615 0.637 0.472
117 0.705 0.014 0.499 0.87
118 0.194 0.372 0.799 0.45
119 0.283 0.485 0.195 0.629
120 0.452 0.848 0.946 0.564
121 0.02 0.554 0.5 0.14
122 0.958 0.895 0.828 0.594
123 0.584 0.299 0.381 0.083
124 0.452 0.278 0.541 0.251
125 0.166 0.534 0.212 0.361
126 0.875 0.813 0.012 0.821
127 0.117 0.841 0.932 0.616
128 0.144 0.574 0.876 0.972
129 0.243 0.555 0.467 0.624
130 0.636 0.076 0.916 0.177
131 0.643 0.344 0.861 0.855
132 0.025 0.73 0.518 0.037
133 0.896 0.153 0.391 0.827
134 0.372 0.972 0.344 0.248
135 0.512 0.49 0.499 0.979
136 0.137 0.616 0.19 0.053
137 0.517 0.696 0.137 0.378
138 0.842 0.403 0.281 0.36
139 0.832 0.255 0.593 0.223
140 0.362 0.595 0.054 0.706
;

# Labels
param y :=
1 -1.0
2 1.0
3 -1.0
4 1.0
5 1.0
6 -1.0
7 -1.0
8 -1.0
9 -1.0
10 1.0
11 -1.0
12 -1.0
13 -1.0
14 1.0
15 1.0
16 -1.0
17 1.0
18 -1.0
19 1.0
20 -1.0
21 -1.0
22 1.0
23 1.0
24 -1.0
25 1.0
26 -1.0
27 -1.0
28 -1.0
29 1.0
30 -1.0
31 -1.0
32 1.0
33 -1.0
34 1.0
35 1.0
36 1.0
37 -1.0
38 1.0
39 1.0
40 -1.0
41 -1.0
42 -1.0
43 1.0
44 1.0
45 -1.0
46 1.0
47 1.0
48 1.0
49 -1.0
50 -1.0
51 -1.0
52 1.0
53 -1.0
54 -1.0
55 1.0
56 -1.0
57 -1.0
58 1.0
59 1.0
60 -1.0
61 1.0
62 1.0
63 1.0
64 1.0
65 -1.0
66 1.0
67 1.0
68 -1.0
69 1.0
70 -1.0
71 1.0
72 -1.0
73 1.0
74 1.0
75 -1.0
76 -1.0
77 1.0
78 -1.0
79 1.0
80 1.0
81 1.0
82 -1.0
83 1.0
84 1.0
85 1.0
86 -1.0
87 -1.0
88 -1.0
89 1.0
90 -1.0
91 1.0
92 -1.0
93 1.0
94 -1.0
95 1.0
96 1.0
97 1.0
98 1.0
99 -1.0
100 -1.0
101 1.0
102 -1.0
103 1.0
104 -1.0
105 1.0
106 1.0
107 1.0
108 -1.0
109 -1.0
110 -1.0
111 -1.0
112 -1.0
113 -1.0
114 -1.0
115 1.0
116 1.0
117 1.0
118 -1.0
119 -1.0
120 1.0
121 -1.0
122 1.0
123 -1.0
124 -1.0
125 -1.0
126 1.0
127 -1.0
128 1.0
129 -1.0
130 -1.0
131 1.0
132 -1.0
133 1.0
134 -1.0
135 1.0
136 -1.0
137 -1.0
138 -1.0
139 -1.0
140 -1.0
;
